Academic license - for non-commercial use only
Gurobi Optimizer version 9.0.3 build v9.0.3rc0 (mac64)
Optimize a model with 312174 rows, 301200 columns and 1752950 nonzeros
Model fingerprint: 0xc55c93a6
Variable types: 0 continuous, 301200 integer (301200 binary)
Coefficient statistics:
  Matrix range     [1e+00, 1e+00]
  Objective range  [1e+01, 5e+04]
  Bounds range     [1e+00, 1e+00]
  RHS range        [1e+00, 5e+02]
Presolve removed 5050 rows and 50 columns (presolve time = 6s) ...
Presolve added 0 rows and 4950 columns
Presolve removed 50 rows and 0 columns
Presolve time: 6.75s
Presolved: 312124 rows, 306150 columns, 1267850 nonzeros
Variable types: 0 continuous, 306150 integer (306150 binary)
Found heuristic solution: objective 532400.00000

Concurrent LP optimizer: dual simplex and barrier
Showing barrier log only...

Root barrier log...

Ordering time: 0.10s

Barrier statistics:
 Dense cols : 600
 AA' NZ     : 9.758e+05
 Factor NZ  : 6.535e+06 (roughly 300 MBytes of memory)
 Factor Ops : 3.028e+09 (less than 1 second per iteration)
 Threads    : 3

                  Objective                Residual
Iter       Primal          Dual         Primal    Dual     Compl     Time
   0   3.07448462e+08 -4.59403402e+08  4.59e+02 2.86e+01  1.60e+04    12s
   1   1.33198468e+06 -4.63695853e+08  1.51e+00 1.57e+03  5.49e+02    12s
   2   7.54671247e+05 -1.86958043e+08  3.94e-01 6.05e+02  2.10e+02    12s
   3   6.76681219e+05 -1.09187306e+08  2.39e-01 3.48e+02  1.22e+02    13s
   4   5.73296687e+05 -3.99560472e+07  2.56e-02 1.22e+02  4.42e+01    13s
   5   5.55917996e+05 -3.09479413e+06  1.04e-02 1.58e+01  3.97e+00    14s
   6   5.17157324e+05 -3.77850194e+05  5.37e-03 2.40e+00  9.73e-01    14s
   7   4.96442801e+05  2.41797510e+03  4.29e-03 1.12e+00  5.36e-01    15s
   8   4.72317881e+05  2.03382592e+05  3.21e-03 5.41e-01  2.92e-01    15s
   9   4.59033126e+05  2.91896657e+05  2.67e-03 2.74e-01  1.81e-01    16s
  10   4.46782116e+05  3.23641186e+05  2.20e-03 1.78e-01  1.33e-01    16s
  11   4.41481727e+05  3.42630716e+05  2.00e-03 1.21e-01  1.07e-01    17s
  12   4.32971744e+05  3.56293120e+05  1.71e-03 8.00e-02  8.28e-02    17s
  13   4.15669083e+05  3.63401636e+05  1.13e-03 5.76e-02  5.65e-02    18s
  14   4.09734161e+05  3.71147186e+05  9.26e-04 3.99e-02  4.17e-02    19s
  15   4.05337448e+05  3.73907031e+05  7.74e-04 3.19e-02  3.39e-02    19s
  16   4.01649888e+05  3.76584487e+05  6.33e-04 2.42e-02  2.71e-02    20s
  17   3.99279717e+05  3.78140739e+05  5.42e-04 1.99e-02  2.28e-02    20s
  18   3.96282983e+05  3.79431733e+05  4.31e-04 1.59e-02  1.82e-02    21s
  19   3.94307606e+05  3.80339549e+05  3.57e-04 1.34e-02  1.51e-02    21s
  20   3.92835502e+05  3.81689246e+05  3.01e-04 9.69e-03  1.20e-02    22s
  21   3.90983137e+05  3.82124619e+05  2.31e-04 8.56e-03  9.56e-03    22s
  22   3.90485760e+05  3.82386182e+05  2.11e-04 7.86e-03  8.74e-03    23s
  23   3.89666077e+05  3.82713829e+05  1.78e-04 6.92e-03  7.50e-03    23s
  24   3.88950749e+05  3.83268915e+05  1.48e-04 5.48e-03  6.13e-03    24s
  25   3.88375169e+05  3.83807049e+05  1.24e-04 4.04e-03  4.93e-03    24s
  26   3.87966191e+05  3.84074540e+05  1.09e-04 3.28e-03  4.20e-03    25s
  27   3.87630081e+05  3.84299012e+05  9.57e-05 2.67e-03  3.59e-03    25s
  28   3.87134351e+05  3.84570502e+05  7.52e-05 1.98e-03  2.76e-03    26s
  29   3.86888073e+05  3.84652803e+05  6.57e-05 1.80e-03  2.41e-03    26s
  30   3.86797098e+05  3.84814806e+05  6.17e-05 1.41e-03  2.14e-03    27s
  31   3.86569073e+05  3.84839419e+05  5.24e-05 1.33e-03  1.86e-03    27s
  32   3.86426211e+05  3.84920024e+05  4.69e-05 1.11e-03  1.62e-03    28s
  33   3.86267419e+05  3.84966048e+05  4.05e-05 1.02e-03  1.40e-03    28s
  34   3.86150301e+05  3.85065187e+05  3.58e-05 7.36e-04  1.17e-03    29s
  35   3.85979427e+05  3.85109210e+05  2.86e-05 6.08e-04  9.37e-04    29s
  36   3.85876529e+05  3.85136708e+05  2.42e-05 5.09e-04  7.97e-04    30s
  37   3.85790473e+05  3.85192661e+05  2.06e-05 3.95e-04  6.43e-04    30s
  38   3.85719276e+05  3.85230183e+05  1.72e-05 3.19e-04  5.26e-04    31s
  39   3.85664681e+05  3.85243522e+05  1.49e-05 2.76e-04  4.53e-04    31s
  40   3.85648915e+05  3.85246331e+05  1.42e-05 2.62e-04  4.33e-04    32s
  41   3.85632696e+05  3.85253592e+05  1.34e-05 2.45e-04  4.08e-04    32s
  42   3.85594152e+05  3.85265701e+05  1.16e-05 2.16e-04  3.53e-04    33s
  43   3.85572991e+05  3.85280453e+05  1.07e-05 1.72e-04  3.15e-04    33s
  44   3.85542283e+05  3.85287236e+05  9.39e-06 1.62e-04  2.74e-04    33s
  45   3.85509417e+05  3.85295241e+05  7.97e-06 1.37e-04  2.30e-04    34s
  46   3.85486163e+05  3.85303149e+05  6.95e-06 1.21e-04  1.97e-04    34s
  47   3.85464027e+05  3.85309920e+05  5.89e-06 1.00e-04  1.66e-04    35s
  48   3.85441276e+05  3.85314908e+05  4.79e-06 8.79e-05  1.36e-04    35s
  49   3.85428487e+05  3.85320076e+05  4.14e-06 7.30e-05  1.16e-04    36s
  50   3.85413153e+05  3.85323367e+05  3.38e-06 6.43e-05  9.65e-05    36s
  51   3.85403430e+05  3.85328314e+05  2.90e-06 5.13e-05  8.07e-05    37s
  52   3.85394450e+05  3.85330584e+05  2.47e-06 4.63e-05  6.86e-05    37s
  53   3.85390435e+05  3.85332966e+05  2.28e-06 4.14e-05  6.17e-05    37s
  54   3.85385278e+05  3.85337804e+05  2.03e-06 2.70e-05  5.09e-05    38s
  55   3.85376856e+05  3.85339662e+05  1.59e-06 1.94e-05  3.99e-05    38s
  56   3.85370279e+05  3.85341595e+05  1.25e-06 1.36e-05  3.08e-05    39s
  57   3.85366524e+05  3.85342357e+05  1.05e-06 1.28e-05  2.59e-05    39s
  58   3.85364878e+05  3.85343334e+05  9.66e-07 1.08e-05  2.31e-05    39s
  59   3.85360844e+05  3.85343655e+05  7.54e-07 9.82e-06  1.84e-05    40s
  60   3.85358752e+05  3.85344052e+05  6.46e-07 8.38e-06  1.58e-05    40s
  61   3.85356596e+05  3.85344523e+05  5.40e-07 6.89e-06  1.29e-05    41s
  62   3.85355041e+05  3.85344905e+05  4.57e-07 5.77e-06  1.09e-05    41s
  63   3.85353727e+05  3.85345200e+05  3.85e-07 4.99e-06  9.14e-06    41s
  64   3.85351993e+05  3.85345741e+05  2.87e-07 3.38e-06  6.70e-06    42s
  65   3.85350956e+05  3.85346203e+05  2.28e-07 1.92e-06  5.09e-06    42s
  66   3.85348843e+05  3.85346485e+05  1.15e-07 8.99e-07  2.52e-06    43s
  67   3.85348425e+05  3.85346590e+05  9.06e-08 6.36e-07  1.96e-06    43s
  68   3.85347935e+05  3.85346784e+05  6.17e-08 2.07e-07  1.23e-06    43s
  69   3.85347588e+05  3.85346821e+05  4.17e-08 4.03e-07  8.19e-07    44s
  70   3.85347145e+05  3.85346835e+05  1.61e-08 1.69e-07  3.32e-07    44s
  71   3.85347050e+05  3.85346846e+05  1.08e-08 1.22e-07  2.19e-07    44s
  72   3.85346938e+05  3.85346847e+05  4.56e-09 1.80e-07  9.75e-08    45s
  73   3.85346918e+05  3.85346853e+05  3.41e-09 2.02e-07  6.92e-08    45s
  74   3.85346865e+05  3.85346854e+05  6.32e-10 9.79e-08  1.11e-08    45s
  75   3.85346864e+05  3.85346854e+05  1.16e-07 9.50e-08  1.04e-08    46s
  76   3.85346864e+05  3.85346854e+05  1.16e-07 9.49e-08  1.04e-08    46s
  77   3.85346864e+05  3.85346854e+05  1.16e-07 9.49e-08  1.04e-08    46s

Barrier solved model in 77 iterations and 46.40 seconds
Optimal objective 3.85346864e+05


Root crossover log...

  118801 DPushes remaining with DInf 0.0000000e+00                47s
       0 DPushes remaining with DInf 0.0000000e+00                49s

    2117 PPushes remaining with PInf 0.0000000e+00                49s
       0 PPushes remaining with PInf 0.0000000e+00                49s

  Push phase complete: Pinf 0.0000000e+00, Dinf 1.3151129e-09     49s


Root simplex log...

Iteration    Objective       Primal Inf.    Dual Inf.      Time
   18869    3.8534685e+05   0.000000e+00   0.000000e+00     49s

Solved with barrier

Root relaxation: objective 3.853469e+05, 18869 iterations, 39.41 seconds
Total elapsed time = 51.42s

    Nodes    |    Current Node    |     Objective Bounds      |     Work
 Expl Unexpl |  Obj  Depth IntInf | Incumbent    BestBd   Gap | It/Node Time

     0     0 385346.855    0 27341 532400.000 385346.855  27.6%     -   53s
H    0     0                    407928.00000 385346.855  5.54%     -   54s
H    0     0                    407848.00000 385346.855  5.52%     -   96s
     0     0 385346.855    0 27341 407848.000 385346.855  5.52%     -  120s
     0     2 385346.855    0 27341 407848.000 385346.855  5.52%     -  188s

Explored 1 nodes (29954 simplex iterations) in 300.13 seconds
Thread count was 8 (of 8 available processors)

Solution count 3: 407848 407928 532400 

Time limit reached
Best objective 4.078480000000e+05, best bound 3.853470000000e+05, gap 5.5170%

User-callback calls 10916, time in user-callback 0.13 sec
Solution written to /Users/mdeboute/Desktop/Etudes/Master/M2/S9/GOPP/Projet/multi-period-flp/solution/instSingle_I50_J500_T12_0_result.txt
